Route #1: 1 3 8 118 18 114 90 93 110 106 88 119 81 86 92 89 117 113 83 1 
Route #2: 1 1 2 84 85 91 87 95 101 107 104 99 116 109 7 9 12 13 11 1 
Route #3: 1 15 53 80 70 98 103 100 102 105 120 111 112 96 94 97 115 108 6 1 
Route #4: 1 5 17 23 32 35 29 36 34 31 30 33 27 24 22 25 19 16 14 10 4 1 
Route #5: 1 20 28 26 21 37 38 39 41 42 48 47 44 46 49 50 51 40 79 1 
Route #6: 1 82 69 67 71 72 75 74 73 76 68 77 78 56 60 57 1 
Route #7: 1 43 45 59 65 61 62 64 66 63 58 55 54 52 1 

Cost 1592.38
Time 2.2278


 * Another infos *

 Iterations: 121 Time: 2.2278 sec - 0.0371 min - 0.0006 horas
0.0000 h 0.0371 min
Problem dimension: 121
